GeneratedTests/Random_11/Random_11_11.tsp
NAME: Random_11_11
TYPE: TSP
DIMENSION: 11
EDGE_WEIGHT_TYPE: EUC_2D
NODE_COORD_SECTION
1 4.1231356 28.538342
2 19.358921 22.666674
3 16.509243 22.080046
4 14.2886 4.555723
5 12.6995535 24.51831
6 4.7724524 5.6803036
7 3.281836 23.574808
8 20.339962 29.975807
9 23.502758 9.644639
10 2.785379 17.324896
11 13.710052 28.700367
EOF
