GeneratedTests/Random_11/Random_11_11.txt
NAME: Random_11_11
TYPE: TSP
DIMENSION: 11
EDGE_WEIGHT_TYPE: EUC_2D
NODE_COORD_SECTION
1 22.434029 28.455528
2 15.047611 1.8597996
3 29.58751 10.398704
4 9.591227 25.848885
5 8.946542 21.981012
6 11.909139 10.545063
7 7.071201 8.996219
8 26.944942 29.490667
9 23.085163 12.104325
10 17.479656 0.7904477
11 8.116623 3.6789246
EOF
